c IN1002 Introduction to Algorithms!
c top secret ID string c852f343c32
c 12 variables and 50 clauses
p cnf 12 50
c each line is a clause, 0 marks the end
1 -10 5 0
9 -11 10 0
1 -6 -7 0
-9 -10 -9 0
-3 -8 -4 0
-3 -12 -4 0
-11 12 -12 0
-4 1 -4 0
-10 11 -7 0
-9 -1 -7 0
12 -3 -8 0
11 -2 -8 0
-1 4 -1 0
4 6 3 0
-9 12 -12 0
-11 -4 1 0
-12 -4 11 0
4 6 -10 0
4 11 -6 0
-9 -6 8 0
-8 3 -12 0
-8 -9 -6 0
6 9 5 0
-3 3 -3 0
4 -3 -11 0
6 7 3 0
6 -9 3 0
-1 11 6 0
-9 12 -11 0
-4 -7 9 0
10 11 7 0
-12 -8 0
10 12 9 0
2 -4 -1 0
-5 6 0
-10 -8 0
11 5 8 0
-3 6 3 0
5 4 10 0
12 2 -2 0
9 1 -8 0
12 7 6 0
11 6 2 0
2 -10 -10 0
9 10 3 0
12 -1 9 0
10 -6 6 0
-4 12 -4 0
11 4 -11 0
8 3 6 0
c Good luck!
